c uprop, v00.0, 
c reading from data/prog950.c.cnf
c done reading: 0.004009
p cnf 177 869
-87 -99 0
87 99 0
-78 -94 0
78 94 0
-89 -91 0
89 91 0
-82 -85 0
82 85 0
-81 -92 0
81 92 0
-76 -83 0
76 83 0
-97 -101 0
97 101 0
99 -102 0
-99 102 0
-99 -103 0
99 103 0
-94 -99 104 0
-94 -102 104 0
-99 -102 104 0
94 99 -104 0
94 102 -104 0
99 102 -104 0
94 -104 -105 0
99 -104 -105 0
102 -104 -105 0
-94 104 105 0
-99 104 105 0
-102 104 105 0
-94 -99 -102 105 0
94 99 102 -105 0
-91 -94 106 0
-91 -104 106 0
-94 -104 106 0
91 94 -106 0
91 104 -106 0
94 104 -106 0
91 -106 -107 0
94 -106 -107 0
104 -106 -107 0
-91 106 107 0
-94 106 107 0
-104 106 107 0
-91 -94 -104 107 0
91 94 104 -107 0
-85 -91 108 0
-85 -106 108 0
-91 -106 108 0
85 91 -108 0
85 106 -108 0
91 106 -108 0
85 -108 -109 0
91 -108 -109 0
106 -108 -109 0
-85 108 109 0
-91 108 109 0
-106 108 109 0
-85 -91 -106 109 0
85 91 106 -109 0
-81 -85 110 0
-81 -108 110 0
-85 -108 110 0
81 85 -110 0
81 108 -110 0
85 108 -110 0
81 -110 -111 0
85 -110 -111 0
108 -110 -111 0
-81 110 111 0
-85 110 111 0
-108 110 111 0
-81 -85 -108 111 0
81 85 108 -111 0
-76 -81 112 0
-76 -110 112 0
-81 -110 112 0
76 81 -112 0
76 110 -112 0
81 110 -112 0
76 -112 -113 0
81 -112 -113 0
110 -112 -113 0
-76 112 113 0
-81 112 113 0
-110 112 113 0
-76 -81 -110 113 0
76 81 110 -113 0
-76 -97 114 0
-97 -112 114 0
-76 -112 114 0
76 97 -114 0
97 112 -114 0
76 112 -114 0
97 -100 -114 0
76 -100 -114 0
-100 112 -114 0
-97 100 114 0
-76 100 114 0
100 -112 114 0
-76 -97 100 -112 0
76 97 -100 112 0
97 -98 0
-98 114 0
-97 98 -114 0
-93 -97 -114 0
-93 97 114 0
93 -97 114 0
93 97 -114 0
-90 105 0
90 -105 0
-84 -105 0
84 105 0
80 -99 -107 0
80 -90 -107 0
80 -90 -99 0
-80 99 107 0
-80 90 107 0
-80 90 99 0
-75 -80 107 0
-75 -80 99 0
-75 -80 90 0
75 80 -107 0
75 80 -99 0
75 80 -90 0
75 -90 -99 -107 0
-75 90 99 107 0
-94 96 -109 0
-80 96 -109 0
-80 -94 96 0
94 -96 109 0
80 -96 109 0
80 94 -96 0
-74 -96 109 0
-74 94 -96 0
-74 80 -96 0
74 96 -109 0
74 -94 96 0
74 -80 96 0
74 -80 -94 -109 0
-74 80 94 109 0
73 -91 -111 0
73 -96 -111 0
73 -91 -96 0
-73 91 111 0
-73 96 111 0
-73 91 96 0
-72 -73 111 0
-72 -73 91 0
-72 -73 96 0
72 73 -111 0
72 73 -91 0
72 73 -96 0
72 -91 -96 -111 0
-72 91 96 111 0
71 -85 -113 0
71 -73 -113 0
71 -73 -85 0
-71 85 113 0
-71 73 113 0
-71 73 85 0
-70 -71 113 0
-70 -71 85 0
-70 -71 73 0
70 71 -113 0
70 71 -85 0
70 71 -73 0
70 -73 -85 -113 0
-70 73 85 113 0
69 -81 -100 0
69 -71 -100 0
69 -71 -81 0
-69 81 100 0
-69 71 100 0
-69 71 81 0
-68 -69 100 0
-68 -69 81 0
-68 -69 71 0
68 69 -100 0
68 69 -81 0
68 69 -71 0
68 -71 -81 -100 0
-68 71 81 100 0
67 -76 -93 0
67 -69 -93 0
67 -69 -76 0
-67 76 93 0
-67 69 93 0
-67 69 76 0
-66 -67 93 0
-66 -67 76 0
-66 -67 69 0
66 67 -93 0
66 67 -76 0
66 67 -69 0
66 -69 -76 -93 0
-66 69 76 93 0
65 -97 -98 0
65 -67 -98 0
65 -67 -97 0
-65 97 98 0
-65 67 98 0
-65 67 97 0
-64 -65 98 0
-64 -65 97 0
-64 -65 67 0
64 65 -98 0
64 65 -97 0
64 65 -67 0
64 -67 -97 -98 0
-64 67 97 98 0
-63 75 0
63 -75 0
-62 -75 0
62 75 0
61 -74 -99 0
61 -63 -74 0
61 -63 -99 0
-61 74 99 0
-61 63 74 0
-61 63 99 0
-60 -61 74 0
-60 -61 99 0
-60 -61 63 0
60 61 -74 0
60 61 -99 0
60 61 -63 0
60 -63 -74 -99 0
-60 63 74 99 0
59 -72 -94 0
59 -61 -72 0
59 -61 -94 0
-59 72 94 0
-59 61 72 0
-59 61 94 0
-58 -59 72 0
-58 -59 94 0
-58 -59 61 0
58 59 -72 0
58 59 -94 0
58 59 -61 0
58 -61 -72 -94 0
-58 61 72 94 0
57 -70 -91 0
57 -59 -70 0
57 -59 -91 0
-57 70 91 0
-57 59 70 0
-57 59 91 0
-56 -57 70 0
-56 -57 91 0
-56 -57 59 0
56 57 -70 0
56 57 -91 0
56 57 -59 0
56 -59 -70 -91 0
-56 59 70 91 0
55 -68 -85 0
55 -57 -68 0
55 -57 -85 0
-55 68 85 0
-55 57 68 0
-55 57 85 0
-54 -55 68 0
-54 -55 85 0
-54 -55 57 0
54 55 -68 0
54 55 -85 0
54 55 -57 0
54 -57 -68 -85 0
-54 57 68 85 0
53 -66 -81 0
53 -55 -66 0
53 -55 -81 0
-53 66 81 0
-53 55 66 0
-53 55 81 0
-52 -53 66 0
-52 -53 81 0
-52 -53 55 0
52 53 -66 0
52 53 -81 0
52 53 -55 0
52 -55 -66 -81 0
-52 55 66 81 0
51 -64 -76 0
51 -53 -64 0
51 -53 -76 0
-51 64 76 0
-51 53 64 0
-51 53 76 0
-51 64 -115 0
-51 76 -115 0
-51 53 -115 0
51 -64 115 0
51 -76 115 0
51 -53 115 0
-53 -64 -76 115 0
53 64 76 -115 0
-65 -97 116 0
-51 -65 116 0
-51 -97 116 0
65 97 -116 0
51 65 -116 0
51 97 -116 0
65 -116 -117 0
97 -116 -117 0
51 -116 -117 0
-65 116 117 0
-97 116 117 0
-51 116 117 0
-51 -65 -97 117 0
51 65 97 -117 0
58 -118 0
-58 118 0
-58 -119 0
58 119 0
-56 -99 120 0
-56 -118 120 0
-99 -118 120 0
56 99 -120 0
56 118 -120 0
99 118 -120 0
56 -120 -121 0
99 -120 -121 0
118 -120 -121 0
-56 120 121 0
-99 120 121 0
-118 120 121 0
-56 -99 -118 121 0
56 99 118 -121 0
-54 -94 122 0
-54 -120 122 0
-94 -120 122 0
54 94 -122 0
54 120 -122 0
94 120 -122 0
54 -122 -123 0
94 -122 -123 0
120 -122 -123 0
-54 122 123 0
-94 122 123 0
-120 122 123 0
-54 -94 -120 123 0
54 94 120 -123 0
-52 -91 124 0
-52 -122 124 0
-91 -122 124 0
52 91 -124 0
52 122 -124 0
91 122 -124 0
52 -124 -125 0
91 -124 -125 0
122 -124 -125 0
-52 124 125 0
-91 124 125 0
-122 124 125 0
-52 -91 -122 125 0
52 91 122 -125 0
-85 -115 126 0
-115 -124 126 0
-85 -124 126 0
85 115 -126 0
115 124 -126 0
85 124 -126 0
115 -126 -127 0
85 -126 -127 0
124 -126 -127 0
-115 126 127 0
-85 126 127 0
-124 126 127 0
-85 -115 -124 127 0
85 115 124 -127 0
-81 -117 128 0
-117 -126 128 0
-81 -126 128 0
81 117 -128 0
117 126 -128 0
81 126 -128 0
117 -128 -129 0
81 -128 -129 0
126 -128 -129 0
-117 128 129 0
-81 128 129 0
-126 128 129 0
-81 -117 -126 129 0
81 117 126 -129 0
-76 -116 130 0
-116 -128 130 0
-76 -128 130 0
76 116 -130 0
116 128 -130 0
76 128 -130 0
116 -130 -131 0
76 -130 -131 0
128 -130 -131 0
-116 130 131 0
-76 130 131 0
-128 130 131 0
-76 -116 -128 131 0
76 116 128 -131 0
97 -132 0
130 -132 0
-97 -130 132 0
-97 -130 -133 0
97 130 -133 0
-97 130 133 0
97 -130 133 0
-103 -134 0
103 134 0
-84 -135 0
84 135 0
-62 -136 0
62 136 0
-60 -137 0
60 137 0
-119 -138 0
119 138 0
-121 -139 0
121 139 0
-123 -140 0
123 140 0
-125 -141 0
125 141 0
-127 -142 0
127 142 0
-95 -129 0
95 129 0
-86 -131 0
86 131 0
-77 -133 0
77 133 0
-132 -143 0
132 143 0
-144 -145 0
-145 -146 0
144 145 146 0
144 146 -147 0
-144 -146 -147 0
-144 146 147 0
144 -146 147 0
145 -149 0
-148 -149 0
-145 148 149 0
-145 148 -151 0
145 -148 -151 0
145 148 151 0
-145 -148 151 0
149 -153 0
-150 -153 0
-149 150 153 0
-149 150 -155 0
149 -150 -155 0
149 150 155 0
-149 -150 155 0
153 -157 0
-152 -157 0
152 -153 157 0
152 -153 -159 0
-152 153 -159 0
152 153 159 0
-152 -153 159 0
157 -160 0
-154 -160 0
154 -157 160 0
154 -157 -161 0
-154 157 -161 0
154 157 161 0
-154 -157 161 0
160 -162 0
-156 -162 0
156 -160 162 0
156 -160 -163 0
-156 160 -163 0
156 160 163 0
-156 -160 163 0
162 -164 0
-158 -164 0
158 -162 164 0
158 -162 -165 0
-158 162 -165 0
158 162 165 0
-158 -162 165 0
146 -166 0
144 -166 0
-144 -146 166 0
-144 -146 -167 0
144 146 -167 0
144 -146 167 0
-144 146 167 0
-146 -148 168 0
-148 -166 168 0
-146 -166 168 0
146 148 -168 0
148 166 -168 0
146 166 -168 0
148 -168 -169 0
146 -168 -169 0
166 -168 -169 0
-148 168 169 0
-146 168 169 0
-166 168 169 0
-146 -148 -166 169 0
146 148 166 -169 0
-148 -150 170 0
-150 -168 170 0
-148 -168 170 0
148 150 -170 0
150 168 -170 0
148 168 -170 0
150 -170 -171 0
148 -170 -171 0
168 -170 -171 0
-150 170 171 0
-148 170 171 0
-168 170 171 0
-148 -150 -168 171 0
148 150 168 -171 0
-150 -152 172 0
-152 -170 172 0
-150 -170 172 0
150 152 -172 0
152 170 -172 0
150 170 -172 0
152 -172 -173 0
150 -172 -173 0
170 -172 -173 0
-152 172 173 0
-150 172 173 0
-170 172 173 0
-150 -152 -170 173 0
150 152 170 -173 0
-152 -154 174 0
-154 -172 174 0
-152 -172 174 0
152 154 -174 0
154 172 -174 0
152 172 -174 0
154 -174 -175 0
152 -174 -175 0
172 -174 -175 0
-154 174 175 0
-152 174 175 0
-172 174 175 0
-152 -154 -172 175 0
152 154 172 -175 0
88 -154 -156 0
88 -156 -174 0
88 -154 -174 0
-88 154 156 0
-88 156 174 0
-88 154 174 0
-88 156 -176 0
-88 154 -176 0
-88 174 -176 0
88 -156 176 0
88 -154 176 0
88 -174 176 0
-154 -156 -174 176 0
154 156 174 -176 0
79 -156 -158 0
79 -88 -158 0
79 -88 -156 0
-79 156 158 0
-79 88 158 0
-79 88 156 0
-79 158 -177 0
-79 156 -177 0
-79 88 -177 0
79 -158 177 0
79 -156 177 0
79 -88 177 0
-88 -156 -158 177 0
88 156 158 -177 0
-50 158 0
-50 79 0
50 -79 -158 0
-49 -79 -158 0
-49 79 158 0
49 79 -158 0
49 -79 158 0
-48 169 0
-48 144 0
48 -144 -169 0
-47 -144 -169 0
-47 144 169 0
47 144 -169 0
47 -144 169 0
46 -146 -171 0
46 -48 -171 0
46 -48 -146 0
-46 146 171 0
-46 48 171 0
-46 48 146 0
-45 -46 171 0
-45 -46 146 0
-45 -46 48 0
45 46 -171 0
45 46 -146 0
45 46 -48 0
45 -48 -146 -171 0
-45 48 146 171 0
44 -148 -173 0
44 -46 -173 0
44 -46 -148 0
-44 148 173 0
-44 46 173 0
-44 46 148 0
-43 -44 173 0
-43 -44 148 0
-43 -44 46 0
43 44 -173 0
43 44 -148 0
43 44 -46 0
43 -46 -148 -173 0
-43 46 148 173 0
42 -150 -175 0
42 -44 -175 0
42 -44 -150 0
-42 150 175 0
-42 44 175 0
-42 44 150 0
-41 -42 175 0
-41 -42 150 0
-41 -42 44 0
41 42 -175 0
41 42 -150 0
41 42 -44 0
41 -44 -150 -175 0
-41 44 150 175 0
40 -152 -176 0
40 -42 -176 0
40 -42 -152 0
-40 152 176 0
-40 42 176 0
-40 42 152 0
-39 -40 176 0
-39 -40 152 0
-39 -40 42 0
39 40 -176 0
39 40 -152 0
39 40 -42 0
39 -42 -152 -176 0
-39 42 152 176 0
38 -154 -177 0
38 -40 -177 0
38 -40 -154 0
-38 154 177 0
-38 40 177 0
-38 40 154 0
-37 -38 177 0
-37 -38 154 0
-37 -38 40 0
37 38 -177 0
37 38 -154 0
37 38 -40 0
37 -40 -154 -177 0
-37 40 154 177 0
36 -49 -156 0
36 -38 -49 0
36 -38 -156 0
-36 49 156 0
-36 38 49 0
-36 38 156 0
-35 -36 49 0
-35 -36 156 0
-35 -36 38 0
35 36 -49 0
35 36 -156 0
35 36 -38 0
35 -38 -49 -156 0
-35 38 49 156 0
34 -50 -158 0
34 -36 -50 0
34 -36 -158 0
-34 50 158 0
-34 36 50 0
-34 36 158 0
-33 -34 50 0
-33 -34 158 0
-33 -34 36 0
33 34 -50 0
33 34 -158 0
33 34 -36 0
33 -36 -50 -158 0
-33 36 50 158 0
-32 -144 0
-32 -167 0
32 144 167 0
-31 144 167 0
-31 -144 -167 0
31 -144 167 0
31 144 -167 0
-30 32 0
-30 -47 0
30 -32 47 0
-29 -32 47 0
-29 32 -47 0
29 32 47 0
29 -32 -47 0
-28 30 0
-28 -45 0
28 -30 45 0
-27 -30 45 0
-27 30 -45 0
27 30 45 0
27 -30 -45 0
-26 28 0
-26 -43 0
26 -28 43 0
-25 -28 43 0
-25 28 -43 0
25 28 43 0
25 -28 -43 0
-24 26 0
-24 -41 0
24 -26 41 0
-23 -26 41 0
-23 26 -41 0
23 26 41 0
23 -26 -41 0
-22 24 0
-22 -39 0
22 -24 39 0
-21 -24 39 0
-21 24 -39 0
21 24 39 0
21 -24 -39 0
-20 22 0
-20 -37 0
20 -22 37 0
-19 -22 37 0
-19 22 -37 0
19 22 37 0
19 -22 -37 0
-18 20 0
-18 -35 0
18 -20 35 0
-17 -20 35 0
-17 20 -35 0
17 20 35 0
17 -20 -35 0
-16 18 0
-16 -33 0
16 -18 33 0
-15 -18 33 0
-15 18 -33 0
15 18 33 0
15 -18 -33 0
-14 16 0
-14 -34 0
14 -16 34 0
-13 -16 34 0
-13 16 -34 0
13 16 34 0
13 -16 -34 0
-12 103 0
-12 144 0
12 -103 -144 0
-103 144 0
103 -144 0
11 -84 -167 0
11 -12 -84 0
11 -12 -167 0
-11 84 167 0
-11 12 84 0
-11 12 167 0
11 -84 0
11 -167 0
11 -12 0
-12 -84 -167 0
10 -47 -62 0
10 -11 -62 0
10 -11 -47 0
-10 47 62 0
-10 11 62 0
-10 11 47 0
-10 62 0
-10 47 0
-10 11 0
11 47 62 0
9 -45 -60 0
9 -10 -60 0
9 -10 -45 0
-9 45 60 0
-9 10 60 0
-9 10 45 0
-9 60 0
-9 45 0
-9 10 0
10 45 60 0
8 -43 -119 0
8 -9 -119 0
8 -9 -43 0
-8 43 119 0
-8 9 119 0
-8 9 43 0
-8 119 0
-8 43 0
-8 9 0
9 43 119 0
7 -41 -121 0
7 -8 -121 0
7 -8 -41 0
-7 41 121 0
-7 8 121 0
-7 8 41 0
7 -121 0
7 -41 0
7 -8 0
-8 -41 -121 0
6 -39 -123 0
6 -7 -123 0
6 -7 -39 0
-6 39 123 0
-6 7 123 0
-6 7 39 0
6 -123 0
6 -39 0
6 -7 0
-7 -39 -123 0
5 -37 -125 0
5 -6 -125 0
5 -6 -37 0
-5 37 125 0
-5 6 125 0
-5 6 37 0
5 -125 0
5 -37 0
5 -6 0
-6 -37 -125 0
4 -35 -127 0
4 -5 -127 0
4 -5 -35 0
-4 35 127 0
-4 5 127 0
-4 5 35 0
4 -127 0
4 -35 0
4 -5 0
-5 -35 -127 0
3 -33 -129 0
3 -4 -129 0
3 -4 -33 0
-3 33 129 0
-3 4 129 0
-3 4 33 0
3 -129 0
3 -33 0
3 -4 0
-4 -33 -129 0
2 -34 -131 0
2 -3 -131 0
2 -3 -34 0
-2 34 131 0
-2 3 131 0
-2 3 34 0
2 -131 0
2 -34 0
2 -3 0
-3 -34 -131 0
-1 133 0
-1 2 0
1 -2 -133 0
2 -133 0
-2 133 0
-1 -132 0
1 -132 0
-1 132 0
